p cnf 7230 16
867 -1178 0
869 -1172 0
-867 -1176 1177 0
-869 -1170 1171 0
867 -1181 0
-867 -1179 1180 0
869 -1175 0
-869 -1173 1174 0
-1177 1178 0
-1171 1172 0
-1180 1181 0
1179 -1181 0
1176 -1178 0
-1174 1175 0
1173 -1175 0
1170 -1172 0
